words_hard_train/2290.qaiger
aag 144 16 0 1 128
2
4
12
20
36
44
82
90
120
128
158
166
196
204
232
234
288
6 2 4
8 3 5
10 7 9
14 11 13
16 10 12
18 15 17
22 20 2
24 18 23
26 21 3
28 27 19
30 25 29
32 15 22
34 33 17
38 9 36
40 8 37
42 39 41
46 43 45
48 42 44
50 47 49
52 34 51
54 35 50
56 53 55
58 31 56
60 30 57
62 59 61
64 63 44
66 62 45
68 26 18
70 69 12
72 70 29
74 73 33
76 67 75
78 65 77
80 55 49
84 41 82
86 40 83
88 85 87
92 89 91
94 88 90
96 93 95
98 80 97
100 81 96
102 99 101
104 61 102
106 60 103
108 105 107
110 108 91
112 79 111
114 109 90
116 113 115
118 101 95
122 87 120
124 86 121
126 123 125
130 127 129
132 126 128
134 131 133
136 118 135
138 119 134
140 137 139
142 107 140
144 106 141
146 143 145
148 146 129
150 117 149
152 147 128
154 151 153
156 139 133
160 125 158
162 124 159
164 161 163
168 165 167
170 164 166
172 169 171
174 156 173
176 157 172
178 175 177
180 145 178
182 144 179
184 181 183
186 185 166
188 154 187
190 184 167
192 189 191
194 177 171
198 163 196
200 162 197
202 199 201
206 203 205
208 202 204
210 207 209
212 194 211
214 195 210
216 213 215
218 216 183
220 217 182
222 219 221
224 222 205
226 192 225
228 223 204
230 227 229
236 232 234
238 233 235
240 237 239
242 240 201
244 241 200
246 243 245
248 215 209
250 247 249
252 246 248
254 251 253
256 255 220
258 254 221
260 257 259
262 260 234
264 231 263
266 184 23
268 266 28
270 146 57
272 270 108
274 268 272
276 222 255
278 274 276
280 265 279
282 264 278
284 281 283
286 261 235
288 285 287
i0 1 x1[0]
i1 1 x1[1]
i2 2 y1[1]
i3 2 y1[0]
i4 1 x1[2]
i5 2 y1[2]
i6 1 x1[3]
i7 2 y1[3]
i8 1 x1[4]
i9 2 y1[4]
i10 1 x1[5]
i11 2 y1[5]
i12 1 x1[6]
i13 2 y1[6]
i14 1 x1[7]
i15 2 y1[7]
o0 bv[0]
c
simplified
  <
    2 y1
    subtract
      1
      add
        unary minus
          1 x1
        2 y1
