words_hard_train/2290.qaiger.qdimacs
p cnf 144 385
a 1 2 98 41 79 18 116 60 0
e 3 4 5 6 7 8 9 10 11 12 13 14 15 16 17 19 20 21 22 23 24 25 26 27 28 29 30 31 32 33 34 35 36 37 38 39 40 42 43 44 45 46 47 48 49 50 51 52 53 54 55 56 57 58 59 61 62 63 64 65 66 67 68 69 70 71 72 73 74 75 76 77 78 80 81 82 83 84 85 86 87 88 89 90 91 92 93 94 95 96 97 99 100 101 102 103 104 105 106 107 108 109 110 111 112 113 114 115 117 118 119 120 121 122 123 124 125 126 127 128 129 130 131 132 133 134 135 136 137 138 139 140 141 142 143 144 0
-1 -2 3 0
1 -3 0
2 -3 0
1 2 4 0
-1 -4 0
-2 -4 0
3 4 5 0
-3 -5 0
-4 -5 0
5 6 7 0
-5 -7 0
-6 -7 0
-5 -6 8 0
5 -8 0
6 -8 0
7 8 9 0
-7 -9 0
-8 -9 0
-10 -1 11 0
10 -11 0
1 -11 0
-9 11 12 0
9 -12 0
-11 -12 0
10 1 13 0
-10 -13 0
-1 -13 0
13 9 14 0
-13 -14 0
-9 -14 0
12 14 15 0
-12 -15 0
-14 -15 0
7 -11 16 0
-7 -16 0
11 -16 0
16 8 17 0
-16 -17 0
-8 -17 0
4 -18 19 0
-4 -19 0
18 -19 0
-4 18 20 0
4 -20 0
-18 -20 0
19 20 21 0
-19 -21 0
-20 -21 0
21 22 23 0
-21 -23 0
-22 -23 0
-21 -22 24 0
21 -24 0
22 -24 0
23 24 25 0
-23 -25 0
-24 -25 0
-17 25 26 0
17 -26 0
-25 -26 0
17 -25 27 0
-17 -27 0
25 -27 0
26 27 28 0
-26 -28 0
-27 -28 0
15 -28 29 0
-15 -29 0
28 -29 0
-15 28 30 0
15 -30 0
-28 -30 0
29 30 31 0
-29 -31 0
-30 -31 0
31 -22 32 0
-31 -32 0
22 -32 0
-31 22 33 0
31 -33 0
-22 -33 0
-13 -9 34 0
13 -34 0
9 -34 0
34 -6 35 0
-34 -35 0
6 -35 0
-35 14 36 0
35 -36 0
-14 -36 0
36 16 37 0
-36 -37 0
-16 -37 0
33 37 38 0
-33 -38 0
-37 -38 0
32 38 39 0
-32 -39 0
-38 -39 0
27 24 40 0
-27 -40 0
-24 -40 0
20 -41 42 0
-20 -42 0
41 -42 0
-20 41 43 0
20 -43 0
-41 -43 0
42 43 44 0
-42 -44 0
-43 -44 0
44 45 46 0
-44 -46 0
-45 -46 0
-44 -45 47 0
44 -47 0
45 -47 0
46 47 48 0
-46 -48 0
-47 -48 0
-40 48 49 0
40 -49 0
-48 -49 0
40 -48 50 0
-40 -50 0
48 -50 0
49 50 51 0
-49 -51 0
-50 -51 0
30 -51 52 0
-30 -52 0
51 -52 0
-30 51 53 0
30 -53 0
-51 -53 0
52 53 54 0
-52 -54 0
-53 -54 0
-54 45 55 0
54 -55 0
-45 -55 0
39 55 56 0
-39 -56 0
-55 -56 0
54 -45 57 0
-54 -57 0
45 -57 0
56 57 58 0
-56 -58 0
-57 -58 0
50 47 59 0
-50 -59 0
-47 -59 0
43 -60 61 0
-43 -61 0
60 -61 0
-43 60 62 0
43 -62 0
-60 -62 0
61 62 63 0
-61 -63 0
-62 -63 0
63 64 65 0
-63 -65 0
-64 -65 0
-63 -64 66 0
63 -66 0
64 -66 0
65 66 67 0
-65 -67 0
-66 -67 0
-59 67 68 0
59 -68 0
-67 -68 0
59 -67 69 0
-59 -69 0
67 -69 0
68 69 70 0
-68 -70 0
-69 -70 0
53 -70 71 0
-53 -71 0
70 -71 0
-53 70 72 0
53 -72 0
-70 -72 0
71 72 73 0
-71 -73 0
-72 -73 0
-73 64 74 0
73 -74 0
-64 -74 0
58 74 75 0
-58 -75 0
-74 -75 0
73 -64 76 0
-73 -76 0
64 -76 0
75 76 77 0
-75 -77 0
-76 -77 0
69 66 78 0
-69 -78 0
-66 -78 0
62 -79 80 0
-62 -80 0
79 -80 0
-62 79 81 0
62 -81 0
-79 -81 0
80 81 82 0
-80 -82 0
-81 -82 0
82 83 84 0
-82 -84 0
-83 -84 0
-82 -83 85 0
82 -85 0
83 -85 0
84 85 86 0
-84 -86 0
-85 -86 0
-78 86 87 0
78 -87 0
-86 -87 0
78 -86 88 0
-78 -88 0
86 -88 0
87 88 89 0
-87 -89 0
-88 -89 0
72 -89 90 0
-72 -90 0
89 -90 0
-72 89 91 0
72 -91 0
-89 -91 0
90 91 92 0
-90 -92 0
-91 -92 0
92 -83 93 0
-92 -93 0
83 -93 0
-77 93 94 0
77 -94 0
-93 -94 0
-92 83 95 0
92 -95 0
-83 -95 0
94 95 96 0
-94 -96 0
-95 -96 0
88 85 97 0
-88 -97 0
-85 -97 0
81 -98 99 0
-81 -99 0
98 -99 0
-81 98 100 0
81 -100 0
-98 -100 0
99 100 101 0
-99 -101 0
-100 -101 0
101 102 103 0
-101 -103 0
-102 -103 0
-101 -102 104 0
101 -104 0
102 -104 0
103 104 105 0
-103 -105 0
-104 -105 0
-97 105 106 0
97 -106 0
-105 -106 0
97 -105 107 0
-97 -107 0
105 -107 0
106 107 108 0
-106 -108 0
-107 -108 0
-108 91 109 0
108 -109 0
-91 -109 0
108 -91 110 0
-108 -110 0
91 -110 0
109 110 111 0
-109 -111 0
-110 -111 0
-111 102 112 0
111 -112 0
-102 -112 0
-96 112 113 0
96 -113 0
-112 -113 0
111 -102 114 0
-111 -114 0
102 -114 0
113 114 115 0
-113 -115 0
-114 -115 0
-116 -117 118 0
116 -118 0
117 -118 0
116 117 119 0
-116 -119 0
-117 -119 0
118 119 120 0
-118 -120 0
-119 -120 0
-120 100 121 0
120 -121 0
-100 -121 0
120 -100 122 0
-120 -122 0
100 -122 0
121 122 123 0
-121 -123 0
-122 -123 0
107 104 124 0
-107 -124 0
-104 -124 0
123 124 125 0
-123 -125 0
-124 -125 0
-123 -124 126 0
123 -126 0
124 -126 0
125 126 127 0
-125 -127 0
-126 -127 0
127 -110 128 0
-127 -128 0
110 -128 0
-127 110 129 0
127 -129 0
-110 -129 0
128 129 130 0
-128 -130 0
-129 -130 0
-130 -117 131 0
130 -131 0
117 -131 0
115 131 132 0
-115 -132 0
-131 -132 0
-92 11 133 0
92 -133 0
-11 -133 0
-133 -14 134 0
133 -134 0
14 -134 0
-73 28 135 0
73 -135 0
-28 -135 0
-135 -54 136 0
135 -136 0
54 -136 0
-134 -136 137 0
134 -137 0
136 -137 0
-111 127 138 0
111 -138 0
-127 -138 0
-137 -138 139 0
137 -139 0
138 -139 0
132 139 140 0
-132 -140 0
-139 -140 0
-132 -139 141 0
132 -141 0
139 -141 0
140 141 142 0
-140 -142 0
-141 -142 0
130 117 143 0
-130 -143 0
-117 -143 0
142 143 144 0
-142 -144 0
-143 -144 0
144 0
